proyfinal/src/viki/013/andrea/andrea-localstore/experimentInOfficeAgust.take6/worker_4/95f02b84-a16a-4213-bb4e-6576eb0c8828.als.cnf.out
Reading from standard input... Use '--help' for help.
============================[ Problem Statistics ]=============================
|                                                                             |
|  Number of variables:         87638                                         |
|  Number of clauses:          161767                                         |
|  Parse time:                   0.04 s                                       |
|                                                                             |
============================[ Search Statistics ]==============================
| Conflicts |          ORIGINAL         |          LEARNT          | Progress |
|           |    Vars  Clauses Literals |    Limit  Clauses Lit/Cl |          |
===============================================================================
|       100 |   63761   110189   275257 |    40402       99     28 | 27.245 % |
|       250 |   63761   110145   275167 |    44442      249     32 | 27.245 % |
|       475 |   63761   110145   275167 |    48887      474     23 | 27.245 % |
|       812 |   63761   110145   275167 |    53775      811     32 | 27.245 % |
|      1318 |   63761   110145   275167 |    59153     1317     44 | 27.245 % |
|      2077 |   63723   110034   274903 |    65068     2045     76 | 27.289 % |
|      3216 |   63723   110034   274903 |    71575     3184    120 | 27.288 % |
|      4924 |   63679   109852   274485 |    78733     4889    117 | 27.339 % |
|      7486 |   63659   109768   274292 |    86606     6342    114 | 27.361 % |
|     11330 |   63659   109768   274292 |    95267    10186    114 | 27.362 % |
|     17096 |   63659   109768   274292 |   104794    15952    117 | 27.361 % |
===============================================================================
restarts              : 63
conflicts             : 18577          (5412 /sec)
decisions             : 65462          (0.00 % random) (19070 /sec)
propagations          : 29620628       (8628685 /sec)
conflict literals     : 2091105        (50.78 % deleted)
Memory used           : 39.22 MB
CPU time              : 3.43281 s

INDETERMINATE
